c ---- [ banner ] ------------------------------------------------------------
c
c Kissat SAT Solver
c 
c Copyright (c) 2021-2024 Armin Biere University of Freiburg
c Copyright (c) 2019-2021 Armin Biere Johannes Kepler University Linz
c 
c Version 4.0.1 43f02cf3e992cb44653b35e5cb26f93281552ae0
c gcc (Ubuntu 13.2.0-23ubuntu4) 13.2.0 -W -Wall -O3 -DNDEBUG
c Thu Sep 12 12:27:46 CEST 2024 Linux abryzen9 6.8.0-41-generic x86_64
c
c ---- [ parsing ] -----------------------------------------------------------
c
c opened and reading DIMACS file:
c
c   /data/artifact/AMulet2.0_artifact/exp4/cnf_dc2_64/64_64_U1_DT_RC_Multgen_dc2.cnf
c
c parsed 'p cnf 28743 127358' header
c closing input after reading 2550534 bytes (2 MB)
c finished parsing after 0.02 seconds
c
c ---- [ options ] -----------------------------------------------------------
c
c --stable=0                       (different from default '1')
c
c ---- [ solving ] -----------------------------------------------------------
c
c  seconds switched rate     size/glue tier1  binary           remaining
c         MB reductions conflicts size  tier2     irredundant
c          level restarts redundant glue  trail           variables
c
c *  0.02 10 0 0 0  0 0   0   0 0.0 0 0 0 0 0% 10402 116954 28740 100%
c (  0.03 12 0 0 0  0 0   0   0 0.0 0 0 0 0 0% 10402 116954 28740 100%
c .  0.04 12 0 0 0  0 0   0   0 0.0 0 0 0 0 0% 10398 116954 28740 100%
c c  0.08 17 0 0 0  0 0   0   0 0.0 0 0 0 0 0% 16960 103830 25459 89%
c d  0.09 17 0 0 0  0 0   0   0 0.0 0 0 0 0 0% 10398 103830 25459 89%
c =  0.13 17 0 0 0  0 0   0   0 0.0 0 0 0 0 0% 10982 103830 25167 88%
c d  0.13 17 0 0 0  0 0   0   0 0.0 0 0 0 0 0% 10398 103830 25167 88%
c f  0.19 17 0 0 0  0 0   0   0 0.0 0 0 0 0 0% 15107 96430 27798 97%
c e  0.30 26 0 0 0  0 0   0   0 0.0 0 0 0 0 0% 9287 104042 18999 66%
c )  0.30 26 0 0 0  0 0   0   0 0.0 0 0 0 0 0% 9287 104042 18999 66%
c {  0.31 26 0 0 0  0 0   0   0 0.0 0 0 2 6 0% 9287 104042 18999 66%
c -  0.46 26 338 0 1 194 51 1001 798 4.8 30 6 4 13 29% 9298 104042 18999 66%
c -  0.57 26 262 0 2 304 39 2001 1368 3.8 24 6 4 11 29% 9346 104042 18999 66%
c c  0.67 23 246 0 2 348 38 2502 1841 3.7 23 6 4 11 30% 9414 103695 18946 66%
c d  0.67 23 246 0 2 348 38 2502 1787 3.7 23 6 4 11 30% 9308 103695 18946 66%
c u  0.68 23 246 0 2 348 38 2502 1416 3.7 23 6 4 11 30% 9313 103695 18946 66%
c v  0.69 24 246 0 2 348 38 2502 1302 3.7 23 6 4 11 30% 9313 103695 18946 66%
c w  0.70 24 246 0 2 348 38 2502 1302 3.7 23 6 4 11 30% 9313 103695 18946 66%
c x  0.71 26 246 0 2 348 38 2502 1302 3.7 23 6 4 11 30% 9313 103687 18946 66%
c =  0.76 26 246 0 2 348 38 2502 1302 3.7 23 6 4 11 30% 9723 103687 18741 65%
c
c  seconds   switched   rate       size/glue tier1     binary          remaining
c         MB  reductions conflicts       size  tier2      irredundant
c           level restarts    redundant    glue    trail          variables
c
c d  0.77 26 246 0 2 348 38 2502 1299 3.7 23 6 4 11 30% 9310 103687 18741 65%
c f  0.79 26 246 0 2 348 38 2502 1299 3.7 23 6 4 11 30% 9885 102549 19304 67%
c u  0.84 26 246 0 2 348 38 2502 1273 3.7 23 6 4 11 30% 9885 102549 19304 67%
c v  0.85 26 246 0 2 348 38 2502 1205 3.7 23 6 4 11 30% 9885 102549 19304 67%
c w  0.87 26 246 0 2 348 38 2502 1202 3.7 23 6 4 11 30% 9885 102549 19304 67%
c =  0.92 26 246 0 2 348 38 2502 1202 3.7 23 6 4 11 30% 10181 102549 19156 67%
c d  0.92 26 246 0 2 348 38 2502 1196 3.7 23 6 4 11 30% 9833 102549 19156 67%
c f  0.95 26 246 0 2 348 38 2502 1196 3.7 23 6 4 11 30% 9885 102470 19182 67%
c -  1.07 26 245 0 3 396 34 3415 1704 3.5 21 6 3 10 28% 9909 102470 19182 67%
c -  1.53 27 251 0 4 629 35 5147 2664 3.8 23 6 2 9 28% 9982 102470 19182 67%
c -  2.04 27 295 0 5 909 36 7147 3700 3.8 24 6 2 9 26% 10038 102470 19182 67%
c d  2.26 27 306 0 5 994 37 7705 4173 3.8 24 6 2 9 27% 9981 102470 19148 67%
c u  2.29 27 306 0 5 994 37 7705 3797 3.8 24 6 2 9 27% 9997 102470 19148 67%
c v  2.34 27 306 0 5 994 37 7705 3226 3.8 24 6 2 9 27% 9997 102470 19148 67%
c w  2.39 27 306 0 5 994 37 7705 3225 3.8 24 6 2 9 27% 9997 102470 19148 67%
c x  2.42 27 306 0 5 994 37 7705 3225 3.8 24 6 2 9 27% 9997 101748 19148 67%
c =  2.56 27 306 0 5 994 37 7705 3225 3.8 24 6 2 9 27% 10867 101748 18713 65%
c d  2.57 27 306 0 5 994 37 7705 3186 3.8 24 6 2 9 27% 9873 101748 18710 65%
c f  2.64 27 306 0 5 994 37 7705 3186 3.8 24 6 2 9 27% 10229 101207 18888 66%
c c  2.71 27 306 0 5 994 37 7705 3186 3.8 24 6 2 9 27% 10231 101201 18887 66%
c
c  seconds   switched   rate       size/glue tier1    binary           remaining
c         MB  reductions conflicts       size  tier2      irredundant
c           level restarts    redundant    glue   trail           variables
c
c d  2.72 27 306 0 5 994 37 7705 3186 3.8 24 6 2 9 27% 10229 101201 18887 66%
c u  2.74 27 306 0 5 994 37 7705 3091 3.8 24 6 2 9 27% 10232 101201 18887 66%
c v  2.77 27 306 0 5 994 37 7705 3000 3.8 24 6 2 9 27% 10232 101201 18887 66%
c w  2.83 27 306 0 5 994 37 7705 2981 3.8 24 6 2 9 27% 10232 101201 18887 66%
c x  2.86 27 306 0 5 994 37 7705 2981 3.8 24 6 2 9 27% 10232 101169 18887 66%
c =  2.99 27 306 0 5 994 37 7705 2981 3.8 24 6 2 9 27% 11244 101169 18381 64%
c d  3.00 27 306 0 5 994 37 7705 2951 3.8 24 6 2 9 27% 10102 101169 18380 64%
c t  3.02 27 306 0 5 994 37 7705 2951 3.8 24 6 2 9 27% 10057 101169 18380 64%
c f  3.06 27 306 0 5 994 37 7705 2951 3.8 24 6 2 9 27% 11943 98340 19323 67%
c -  3.25 27 305 0 6 1046 34 9383 3760 3.8 23 6 2 8 24% 11995 98340 19323 67%
c o  3.32 27 324 0 6 1062 33 10003 4303 3.7 22 6 2 8 24% 12005 98340 19323 67%
c -  4.07 27 302 0 7 1314 33 11834 5272 3.8 24 6 2 8 25% 12043 98340 19323 67%
c s  4.39 27 313 0 7 1436 34 12507 5813 4.0 25 6 2 8 26% 12072 91844 19323 67%
c e  4.51 27 313 0 7 1436 34 12507 5813 4.0 25 6 2 8 26% 11220 92420 18825 65%
c 2  4.51 27 313 0 7 1436 34 12507 5813 4.0 25 6 2 8 26% 11218 92420 18825 65%
c s  4.51 27 313 0 7 1436 34 12507 5813 4.0 25 6 2 8 26% 11220 91897 18825 65%
c e  4.53 27 313 0 7 1436 34 12507 5813 4.0 25 6 2 8 26% 11211 91900 18820 65%
c ^  4.53 27 313 0 7 1436 34 12507 5813 4.0 25 6 2 8 26% 11211 91900 18820 65%
c -  5.06 27 308 0 8 1643 35 14480 6390 4.0 26 6 2 8 26% 11254 91900 18820 65%
c d  5.58 27 306 0 8 1849 37 15783 7574 4.1 27 7 2 8 26% 10965 91900 18639 65%
c
c  seconds   switched    rate        size/glue tier1    binary          remaining
c         MB  reductions   conflicts       size  tier2      irredundant
c           level  restarts     redundant    glue   trail          variables
c
c u  5.63 27 306 0 8 1849 37 15783 6720 4.1 27 7 2 8 26% 10982 91900 18639 65%
c v  5.69 27 306 0 8 1849 37 15783 5770 4.1 27 7 2 8 26% 10983 91900 18639 65%
c w  5.84 29 306 0 8 1849 37 15783 5750 4.1 27 7 2 8 26% 10983 91900 18639 65%
c =  6.07 29 306 0 8 1849 37 15783 5750 4.1 27 7 2 8 26% 11891 91896 18185 63%
c d  6.08 29 306 0 8 1849 37 15783 5642 4.1 27 7 2 8 26% 10814 91896 18184 63%
c t  6.10 29 306 0 8 1849 37 15783 5642 4.1 27 7 2 8 26% 10757 91896 18184 63%
c f  6.17 29 306 0 8 1849 37 15783 5642 4.1 27 7 2 8 26% 10891 91628 18251 63%
c u  6.22 29 306 0 8 1849 37 15783 5485 4.1 27 7 2 8 26% 10894 91628 18251 63%
c v  6.25 29 306 0 8 1849 37 15783 5359 4.1 27 7 2 8 26% 10894 91628 18251 63%
c w  6.36 29 306 0 8 1849 37 15783 5327 4.1 27 7 2 8 26% 10894 91628 18251 63%
c x  6.40 29 306 0 8 1849 37 15783 5327 4.1 27 7 2 8 26% 10894 91153 18251 63%
c =  6.63 29 306 0 8 1849 37 15783 5327 4.1 27 7 2 8 26% 12406 91153 17495 61%
c d  6.64 29 306 0 8 1849 37 15783 5261 4.1 27 7 2 8 26% 10327 91153 17495 61%
c t  6.66 29 306 0 8 1849 37 15783 5261 4.1 27 7 2 8 26% 10324 91153 17495 61%
c f  6.69 29 306 0 8 1849 37 15783 5261 4.1 27 7 2 8 26% 10328 91145 17497 61%
c -  7.12 29 295 0 9 2014 36 17308 5743 4.0 27 7 2 8 26% 10375 91145 17497 61%
c o  7.54 29 281 0 9 2159 35 20044 7815 4.0 27 7 2 8 26% 10481 91145 17497 61%
c -  7.69 29 280 0 10 2220 35 20309 7190 4.1 28 7 2 8 26% 10484 91145 17497 61%
c -  8.43 29 278 0 11 2511 34 23471 8714 4.1 29 7 2 8 26% 10540 91145 17497 61%
c s  8.88 29 276 0 11 2659 34 25010 10080 4.2 30 7 2 8 26% 10572 87407 17497 61%
c
c  seconds   switched     rate         size/glue tier1    binary         remaining
c         MB   reductions   conflicts        size  tier2     irredundant
c           level   restarts      redundant    glue   trail         variables
c
c e  9.00 29 276 0 11 2659 34 25010 10080 4.2 30 7 2 8 26% 8826 89674 16479 57%
c s  9.00 29 276 0 11 2659 34 25010 10080 4.2 30 7 2 8 26% 8827 89114 16479 57%
c e  9.01 29 276 0 11 2659 34 25010 10080 4.2 30 7 2 8 26% 8818 89126 16476 57%
c ^  9.01 29 276 0 11 2659 34 25010 10080 4.2 30 7 2 8 26% 8818 89126 16476 57%
c -  9.65 29 274 0 12 2895 35 26788 9307 4.3 31 7 2 8 26% 8855 89126 16476 57%
c c  9.73 29 274 0 12 2895 35 26909 9420 4.3 31 7 2 8 26% 8955 88588 16404 57%
c d  9.74 29 274 0 12 2895 35 26909 9324 4.3 31 7 2 8 26% 8646 88588 16307 57%
c u  9.79 29 274 0 12 2895 35 26909 8391 4.3 31 7 2 8 26% 8665 88588 16307 57%
c v  9.84 29 274 0 12 2895 35 26909 7360 4.3 31 7 2 8 26% 8668 88588 16307 57%
c w  9.85 29 274 0 12 2895 35 26909 7358 4.3 31 7 2 8 26% 8668 88588 16307 57%
c x  9.95 29 274 0 12 2895 35 26909 7357 4.3 31 7 2 8 26% 8677 87079 16307 57%
c = 10.24 29 274 0 12 2895 35 26909 7357 4.3 31 7 2 8 26% 12293 87047 14497 50%
c d 10.25 29 274 0 12 2895 35 26909 7109 4.3 31 7 2 8 26% 8589 87047 14496 50%
c t 10.27 29 274 0 12 2895 35 26909 7109 4.3 31 7 2 8 26% 8584 87047 14496 50%
c f 10.33 29 274 0 12 2895 35 26909 7109 4.3 31 7 2 8 26% 8582 87037 14499 50%
c u 10.38 29 274 0 12 2895 35 26909 6677 4.3 31 7 2 8 26% 8586 87037 14499 50%
c v 10.41 29 274 0 12 2895 35 26909 6578 4.3 31 7 2 8 26% 8586 87037 14499 50%
c w 10.42 29 274 0 12 2895 35 26909 6577 4.3 31 7 2 8 26% 8586 87037 14499 50%
c x 10.54 29 274 0 12 2895 35 26909 6577 4.3 31 7 2 8 26% 8587 79253 14499 50%
c = 10.81 29 274 0 12 2895 35 26909 6577 4.3 31 7 2 8 26% 9575 79253 14005 49%
c
c  seconds   switched     rate        size/glue tier1    binary         remaining
c         MB   reductions   conflicts       size  tier2     irredundant
c           level   restarts     redundant    glue   trail         variables
c
c d 10.82 29 274 0 12 2895 35 26909 6526 4.3 31 7 2 8 26% 8562 79253 14004 49%
c - 11.36 29 270 0 13 3127 33 30252 8478 4.2 30 7 2 7 26% 8577 79249 14004 49%
c - 12.12 29 262 0 14 3469 32 33857 10552 4.1 29 7 2 7 26% 8593 79249 14004 49%
c - 12.70 29 249 0 15 3746 31 37598 11997 3.9 29 7 2 7 25% 8629 79249 14004 49%
c o 13.13 29 241 0 15 3953 30 40046 14057 3.9 29 7 2 7 25% 8670 79249 14004 49%
c c 13.48 29 238 0 15 4101 30 41244 15066 3.9 29 7 2 7 25% 8744 78811 13931 48%
c d 13.48 29 238 0 15 4101 30 41244 14649 3.9 29 7 2 7 25% 8598 78811 13931 48%
c u 13.55 29 238 0 15 4101 30 41244 12457 3.9 29 7 2 7 25% 8624 78811 13931 48%
c v 13.62 29 238 0 15 4101 30 41244 11565 3.9 29 7 2 7 25% 8624 78811 13931 48%
c w 13.67 29 238 0 15 4101 30 41244 11564 3.9 29 7 2 7 25% 8624 78811 13931 48%
c x 13.74 29 238 0 15 4101 30 41244 11564 3.9 29 7 2 7 25% 8624 73517 13931 48%
c d 13.98 29 238 0 15 4101 30 41244 11546 3.9 29 7 2 7 25% 8610 73517 13924 48%
c t 13.99 29 238 0 15 4101 30 41244 11546 3.9 29 7 2 7 25% 8606 73517 13924 48%
c c 14.06 29 238 0 15 4101 30 41244 11546 3.9 29 7 2 7 25% 8619 73461 13917 48%
c d 14.07 29 238 0 15 4101 30 41244 11522 3.9 29 7 2 7 25% 8605 73461 13917 48%
c u 14.13 29 238 0 15 4101 30 41244 11065 3.9 29 7 2 7 25% 8613 73461 13917 48%
c v 14.19 29 238 0 15 4101 30 41244 10345 3.9 29 7 2 7 25% 8618 73461 13917 48%
c w 14.28 29 238 0 15 4101 30 41244 10343 3.9 29 7 2 7 25% 8618 73461 13917 48%
c x 14.35 29 238 0 15 4101 30 41244 10343 3.9 29 7 2 7 25% 8619 71797 13917 48%
c d 14.36 29 238 0 15 4101 30 41244 10338 3.9 29 7 2 7 25% 8611 71797 13913 48%
c
c  seconds   switched     rate        size/glue tier1    binary         remaining
c         MB   reductions   conflicts       size  tier2     irredundant
c           level   restarts     redundant    glue   trail         variables
c
c - 14.45 29 238 0 16 4137 30 41470 9168 3.9 29 7 2 7 25% 8611 71797 13913 48%
c - 15.16 29 236 0 17 4440 30 45470 11005 3.8 29 8 2 7 25% 8672 71793 13913 48%
c - 16.22 29 233 0 18 4913 30 49593 12887 3.8 29 8 2 7 26% 8726 71790 13913 48%
c s 16.79 29 233 0 18 5166 30 52110 14974 3.9 30 8 2 7 26% 8773 70985 13913 48%
c e 16.88 29 233 0 18 5166 30 52110 14974 3.9 30 8 2 7 26% 8258 71485 13587 47%
c s 16.88 29 233 0 18 5166 30 52110 14974 3.9 30 8 2 7 26% 8259 71226 13587 47%
c e 16.89 29 233 0 18 5166 30 52110 14974 3.9 30 8 2 7 26% 8259 71228 13586 47%
c ^ 16.89 29 233 0 18 5166 30 52110 14974 3.9 30 8 2 7 26% 8259 71228 13586 47%
c i 16.99 29 233 0 18 5203 30 52698 13893 3.8 29 8 2 7 26% 8273 71228 13584 47%
c - 17.45 29 232 0 19 5409 30 53838 13176 3.9 30 8 2 7 26% 8278 71228 13584 47%
c - 18.25 29 234 0 20 5731 29 58199 14870 3.8 30 8 2 6 26% 8338 71228 13584 47%
c d 18.40 29 234 0 20 5803 29 58898 15363 3.8 30 8 2 6 26% 8283 71215 13549 47%
c d 18.41 29 234 0 20 5803 29 58898 15362 3.8 30 8 2 6 26% 8279 71215 13547 47%
c u 18.48 29 234 0 20 5803 29 58898 13313 3.8 30 8 2 6 26% 8302 71215 13547 47%
c v 18.56 29 234 0 20 5803 29 58898 11777 3.8 30 8 2 6 26% 8308 71215 13547 47%
c w 18.64 29 234 0 20 5803 29 58898 11727 3.8 30 8 2 6 26% 8308 71215 13547 47%
c x 18.76 29 234 0 20 5803 29 58898 11725 3.8 30 8 2 6 26% 8311 70400 13547 47%
c = 19.14 29 234 0 20 5803 29 58898 11725 3.8 30 8 2 6 26% 8961 70400 13222 46%
c d 19.15 29 234 0 20 5803 29 58898 11509 3.8 30 8 2 6 26% 8256 70400 13215 46%
c t 19.17 29 234 0 20 5803 29 58898 11509 3.8 30 8 2 6 26% 8253 70400 13215 46%
c
c  seconds   switched     rate         size/glue tier1    binary         remaining
c         MB   reductions   conflicts        size  tier2     irredundant
c           level   restarts      redundant    glue   trail         variables
c
c f 19.20 29 234 0 20 5803 29 58898 11509 3.8 30 8 2 6 26% 8257 70382 13217 46%
c c 19.25 29 234 0 20 5803 29 58898 11451 3.8 30 8 2 6 26% 8289 70245 13200 46%
c d 19.26 29 234 0 20 5803 29 58898 11451 3.8 30 8 2 6 26% 8255 70245 13200 46%
c u 19.31 29 234 0 20 5803 29 58898 10910 3.8 30 8 2 6 26% 8260 70245 13200 46%
c v 19.35 29 234 0 20 5803 29 58898 10669 3.8 30 8 2 6 26% 8260 70245 13200 46%
c w 19.41 29 234 0 20 5803 29 58898 10640 3.8 30 8 2 6 26% 8260 70245 13200 46%
c x 19.54 29 234 0 20 5803 29 58898 10640 3.8 30 8 2 6 26% 8261 68112 13200 46%
c = 19.88 29 234 0 20 5803 29 58898 10640 3.8 30 8 2 6 26% 9045 68112 12808 45%
c d 19.89 29 234 0 20 5803 29 58898 10334 3.8 30 8 2 6 26% 8214 68112 12808 45%
c t 19.91 29 234 0 20 5803 29 58898 10334 3.8 30 8 2 6 26% 8213 68112 12808 45%
c i 20.52 29 233 0 20 6125 29 61812 12918 3.8 30 8 2 6 27% 8231 68112 12807 45%
c - 20.74 29 232 0 21 6245 30 62671 12165 3.8 30 8 2 6 27% 8235 68112 12807 45%
c i 21.21 29 230 0 21 6468 29 64984 14164 3.8 30 8 2 6 27% 8262 68112 12806 45%
c i 21.21 29 230 0 21 6468 29 65007 14174 3.8 30 8 2 6 27% 8267 68112 12805 45%
c - 21.60 29 228 0 22 6742 29 67254 14302 3.8 30 8 2 6 27% 8292 68112 12805 45%
c o 21.91 29 226 0 22 6964 29 70050 16838 3.7 30 8 2 6 27% 8321 68112 12805 45%
c - 22.04 29 222 0 23 7064 28 71947 16292 3.7 29 8 2 6 26% 8323 68112 12805 45%
c - 22.50 29 216 0 24 7400 27 76742 17865 3.7 29 8 2 6 26% 8405 68112 12805 45%
c c 23.03 29 213 0 24 7736 27 80001 20607 3.7 29 8 2 6 26% 8517 67263 12668 44%
c d 23.03 29 213 0 24 7736 27 80001 19991 3.7 29 8 2 6 26% 8245 67261 12668 44%
c
c  seconds   switched     rate         size/glue tier1    binary         remaining
c         MB   reductions   conflicts        size  tier2     irredundant
c           level   restarts      redundant    glue   trail         variables
c
c d 23.03 29 213 0 24 7736 27 80001 19991 3.7 29 8 2 6 26% 8243 67261 12667 44%
c u 23.08 29 213 0 24 7736 27 80001 16836 3.7 29 8 2 6 26% 8281 67261 12667 44%
c v 23.14 29 213 0 24 7736 27 80001 14870 3.7 29 8 2 6 26% 8284 67261 12667 44%
c w 23.18 29 213 0 24 7736 27 80001 14869 3.7 29 8 2 6 26% 8284 67261 12667 44%
c x 23.24 29 213 0 24 7736 27 80001 14869 3.7 29 8 2 6 26% 8291 64553 12667 44%
c = 23.54 29 213 0 24 7736 27 80001 14869 3.7 29 8 2 6 26% 9011 64303 12277 43%
c d 23.55 29 213 0 24 7736 27 80001 13640 3.7 29 8 2 6 26% 8208 64303 12277 43%
c t 23.56 29 213 0 24 7736 27 80001 13640 3.7 29 8 2 6 26% 8201 64303 12277 43%
c u 23.63 29 213 0 24 7736 27 80001 12826 3.7 29 8 2 6 26% 8182 64303 12277 43%
c v 23.66 29 213 0 24 7736 27 80001 12455 3.7 29 8 2 6 26% 8182 64303 12277 43%
c w 23.75 29 213 0 24 7736 27 80001 12440 3.7 29 8 2 6 26% 8182 64303 12277 43%
c x 23.80 29 213 0 24 7736 27 80001 12440 3.7 29 8 2 6 26% 8186 63755 12277 43%
c = 23.91 29 213 0 24 7736 27 80001 12440 3.7 29 8 2 6 26% 8418 63625 12136 42%
c } 23.91 29 213 0 24 7736 27 80001 12440 3.7 29 8 2 6 26% 8418 63625 12250 43%
c 0 23.91 29 213 0 24 7736 27 80001 12440 3.7 29 8 2 6 26% 8418 63625 12250 43%
c
c ---- [ result ] ------------------------------------------------------------
c
s UNSATISFIABLE
c
c ---- [ profiling ] ---------------------------------------------------------
c
c          16.25   67.97 %  search
c          16.25   67.97 %  focused
c           7.35   30.73 %  simplify
c           7.06   29.52 %  probe
c           2.79   11.68 %  sweep
c           2.77   11.57 %  vivify
c           0.48    2.03 %  factor
c           0.47    1.95 %  congruence
c           0.45    1.86 %  eliminate
c           0.39    1.65 %  substitute
c           0.27    1.13 %  preprocess
c           0.12    0.52 %  reduce
c           0.11    0.46 %  transitive
c           0.11    0.46 %  fastel
c           0.08    0.33 %  subsume
c           0.05    0.19 %  backbone
c           0.02    0.09 %  lucky
c           0.02    0.09 %  parse
c =============================================
c          23.91  100.00 %  total
c
c ---- [ statistics ] --------------------------------------------------------
c
c chronological:                         4088                5 %  conflicts
c conflicts:                            80001             3346.16 per second
c congruent:                             3641               13 %  variables
c decisions:                          2098383               26.23 per conflict
c eliminated:                           10650               37 %  variables
c factored:                              4415               15 %  variables
c fast_eliminated:                       8799               83 %  eliminated
c fast_strengthened:                       32               14 %  per strengthened
c fast_subsumed:                           75                1 %  per subsumed
c iterations:                               4                0 %  variables
c propagations:                      82601244          3454920    per second
c reductions:                              24             3333    interval
c reordered:                                4            20000    interval
c restarts:                              7736               10    interval
c strengthened:                           233                0 %  checks
c substituted:                          10188               35 %  variables
c subsumed:                             12449                1 %  checks
c switched:                                 0                0    interval
c vivified:                             52084               11 %  checks
c
c ---- [ glue usage ] --------------------------------------------------------
c
c focused glue 2 used 40804 clauses 24.53% accumulated 72.99% tier1
c focused glue 3 used 12675 clauses  7.62% accumulated 80.61%
c focused glue 4 used  8369 clauses  5.03% accumulated 85.64%
c focused glue 5 used  5489 clauses  3.30% accumulated 88.94%
c focused glue 6 used  4057 clauses  2.44% accumulated 91.38% tier2
c
c ---- [ resources ] ---------------------------------------------------------
c
c maximum-resident-set-size:         30892032 bytes         29 MB
c process-time:                            24s              23.91 seconds
c
c ---- [ shutting down ] -----------------------------------------------------
c
c exit 20
